FILENAME:   /home/mcs001/s132664/testsets/IP/miplib2017/fastxgemm-n3r21s3t6.mps.gz
SETTINGS:   settings_isopr_minimalindexbranching_avoidsubtreenodes
TIMELIMIT:  7200
OUTPUTNAME: final_miplib_symretope_if_extended_generating_set_cpx_v802__settings_isopr_minimalindexbranching_avoidsubtreenodes__3__
BINNAME:    bin/symmetries.linux.x86_64.gnu.opt.cpx
BASENAME:   fastxgemm-n3r21s3t6.mps.gz
SEED:       3
@01 /home/mcs001/s132664/testsets/IP/miplib2017/fastxgemm-n3r21s3t6.mps.gz ===========
@02 fastxgemm-n3r21s3t6.mps.gz
@03 1686566870
SCIP version 8.0.2 [precision: 8 byte] [memory: block] [mode: optimized] [LP solver: CPLEX 20.1.0.0] [GitHash: 5f0473c]
Copyright (C) 2002-2022 Konrad-Zuse-Zentrum fuer Informationstechnik Berlin (ZIB)

Symmetry handling routines - (c) Marc Pfetsch, Thomas Rehn, Christopher Hojny.
[GitHash: a1587cb]


Turned off presolver <gateextraction>.
reading parameter file <../settings/settings_isopr_minimalindexbranching_avoidsubtreenodes.set> ...

Changed settings:
limits/time = 7200
limits/restarts = 0
randomization/randomseedshift = 3
constraints/orbitope/sepafreq = -1
constraints/orbitope/propfreq = 1
presolving/gateextraction/maxrounds = 0
propagating/isoprune/avoidsubtreenodes = TRUE
useisoprune = TRUE
usebranchfirst = TRUE


solving problem ...

original problem has 18684 variables (378 bin, 0 int, 0 impl, 18306 cont) and 219368 constraints
presolving:
(round 1, exhaustive) 0 del vars, 61236 del conss, 0 add conss, 0 chg bounds, 0 chg sides, 0 chg coeffs, 0 upgd conss, 0 impls, 189 clqs
(round 2, exhaustive) 0 del vars, 61236 del conss, 0 add conss, 0 chg bounds, 0 chg sides, 0 chg coeffs, 93646 upgd conss, 0 impls, 189 clqs
(round 3, exhaustive) 25 del vars, 61236 del conss, 0 add conss, 0 chg bounds, 0 chg sides, 0 chg coeffs, 93646 upgd conss, 2322 impls, 1047 clqs
(round 4, exhaustive) 50 del vars, 61297 del conss, 0 add conss, 0 chg bounds, 0 chg sides, 0 chg coeffs, 93646 upgd conss, 2322 impls, 985 clqs
(round 5, medium)     50 del vars, 61446 del conss, 0 add conss, 0 chg bounds, 0 chg sides, 0 chg coeffs, 93646 upgd conss, 2322 impls, 985 clqs
(round 6, exhaustive) 75 del vars, 61446 del conss, 0 add conss, 0 chg bounds, 0 chg sides, 0 chg coeffs, 93646 upgd conss, 2322 impls, 927 clqs
(round 7, exhaustive) 100 del vars, 61559 del conss, 0 add conss, 0 chg bounds, 0 chg sides, 0 chg coeffs, 93646 upgd conss, 2322 impls, 864 clqs
(round 8, medium)     100 del vars, 61774 del conss, 0 add conss, 0 chg bounds, 0 chg sides, 0 chg coeffs, 93646 upgd conss, 2322 impls, 864 clqs
(round 9, exhaustive) 125 del vars, 61774 del conss, 0 add conss, 0 chg bounds, 0 chg sides, 0 chg coeffs, 93646 upgd conss, 2322 impls, 812 clqs
(round 10, exhaustive) 150 del vars, 61817 del conss, 0 add conss, 0 chg bounds, 0 chg sides, 0 chg coeffs, 93646 upgd conss, 2322 impls, 756 clqs
(round 11, exhaustive) 175 del vars, 61928 del conss, 0 add conss, 0 chg bounds, 0 chg sides, 0 chg coeffs, 93646 upgd conss, 2322 impls, 698 clqs
(round 12, medium)     175 del vars, 62073 del conss, 0 add conss, 0 chg bounds, 0 chg sides, 0 chg coeffs, 93646 upgd conss, 2322 impls, 698 clqs
(round 13, exhaustive) 200 del vars, 62073 del conss, 0 add conss, 0 chg bounds, 0 chg sides, 0 chg coeffs, 93646 upgd conss, 2322 impls, 756 clqs
(round 14, medium)     200 del vars, 62286 del conss, 0 add conss, 0 chg bounds, 0 chg sides, 0 chg coeffs, 93646 upgd conss, 2322 impls, 756 clqs
(round 15, exhaustive) 225 del vars, 62286 del conss, 0 add conss, 0 chg bounds, 0 chg sides, 0 chg coeffs, 93646 upgd conss, 2322 impls, 696 clqs
(round 16, medium)     225 del vars, 62418 del conss, 0 add conss, 0 chg bounds, 0 chg sides, 0 chg coeffs, 93646 upgd conss, 2322 impls, 696 clqs
(round 17, exhaustive) 250 del vars, 62418 del conss, 0 add conss, 0 chg bounds, 0 chg sides, 0 chg coeffs, 93646 upgd conss, 2322 impls, 640 clqs
(round 18, exhaustive) 275 del vars, 62529 del conss, 0 add conss, 0 chg bounds, 0 chg sides, 0 chg coeffs, 93646 upgd conss, 2322 impls, 584 clqs
(round 19, medium)     275 del vars, 62658 del conss, 0 add conss, 0 chg bounds, 0 chg sides, 0 chg coeffs, 93646 upgd conss, 2322 impls, 584 clqs
(round 20, exhaustive) 300 del vars, 62658 del conss, 0 add conss, 0 chg bounds, 0 chg sides, 0 chg coeffs, 93646 upgd conss, 2322 impls, 530 clqs
(round 21, exhaustive) 325 del vars, 62738 del conss, 0 add conss, 0 chg bounds, 0 chg sides, 0 chg coeffs, 93646 upgd conss, 2322 impls, 534 clqs
(round 22, exhaustive) 350 del vars, 62837 del conss, 0 add conss, 0 chg bounds, 0 chg sides, 0 chg coeffs, 93646 upgd conss, 2322 impls, 488 clqs
(round 23, medium)     350 del vars, 62978 del conss, 0 add conss, 0 chg bounds, 0 chg sides, 0 chg coeffs, 93646 upgd conss, 2322 impls, 488 clqs
(round 24, exhaustive) 375 del vars, 62978 del conss, 0 add conss, 0 chg bounds, 0 chg sides, 0 chg coeffs, 93646 upgd conss, 2322 impls, 438 clqs
   (15.0s) probing cycle finished: starting next cycle
Required symmetry:			(1 bin, 0 int, 0 cont); (fixed: 0 bin, 1 int, 0 cont)
Time for symmetry detection:		3.09 	(matrix graph, 271156 nodes, 1426296 edges)
Number of generators:			7 	(max: 1500)
Order of symmetry group:		5832
Log10 of symmetry group order:		3.8
Number of vars moved by some symmetry:	18216
Total time for symmetry detection:	3.12

Turned off presolver <domcol>.
Turned off presolver <components>.

presolving (25 rounds: 25 fast, 25 medium, 18 exhaustive):
 378 deleted vars, 63070 deleted constraints, 0 added constraints, 0 tightened bounds, 0 added holes, 0 changed sides, 0 changed coefficients
 3456 implications, 432 cliques
presolved problem has 18306 variables (378 bin, 0 int, 756 impl, 17172 cont) and 156299 constraints
  91584 constraints of type <varbound>
      1 constraints of type <knapsack>
    192 constraints of type <setppc>
  64486 constraints of type <linear>
     35 constraints of type <logicor>
      1 constraints of type <symmetries>
Presolving Time: 20.93

 time | node  | left  |LP iter|LP it/n|mem/heur|mdpt |frac |vars |cons |cols |rows |cuts |confs|strbr|  dualbound   | primalbound  |  gap   
p22.6s|     1 |     0 |     0 |     - |shiftand|   0 |   - |  18k| 156k|  18k| 156k|   0 |   3 |   0 | 0.000000e+00 | 6.708400e+04 |    Inf 
 44.2s|     1 |     0 |    46 |     - |   568M |   0 | 180 |  18k| 156k|  18k| 156k|   0 |   3 |   0 | 8.400000e+01 | 6.708400e+04 |  Large 
  290s|     1 |     2 | 20587 |     - |   607M |   0 | 180 |  18k| 156k|  18k| 156k|   0 |   3 |   0 | 8.400000e+01 | 6.708400e+04 |  Large 

SCIP Status        : solving was interrupted [time limit reached]
Solving Time (sec) : 7200.09
Solving Nodes      : 63
Primal Bound       : +6.70840000000000e+04 (1 solutions)
Dual Bound         : +8.40000000000000e+01
Gap                : 79761.90 %

Number of variables fixed to 0 by isomorphism pruning:	    14
Number of variables fixed to 1 by isomorphism pruning:	     0
@04 1686574074
